words_hard_train/7741.qaiger
aag 112 15 0 1 97
2
4
8
10
14
18
22
28
30
34
36
40
44
50
58
225
6 2 4
12 9 11
16 12 15
20 17 18
24 21 23
26 6 25
32 28 30
38 35 37
42 38 41
46 42 45
48 47 30
52 49 51
54 53 30
56 33 55
60 56 59
62 60 30
64 26 62
66 27 63
68 65 67
70 55 28
72 54 29
74 71 73
76 74 3
78 57 58
80 61 79
82 81 5
84 77 83
86 48 50
88 87 53
90 34 8
92 91 11
94 90 10
96 34 30
98 96 36
100 97 37
102 99 101
104 95 103
106 93 105
108 39 30
110 109 40
112 108 41
114 111 113
116 114 15
118 115 14
120 117 119
122 106 120
124 123 119
126 43 30
128 127 45
130 126 44
132 129 131
134 133 19
136 132 18
138 135 137
140 125 138
142 141 137
144 88 143
146 145 23
148 89 142
150 147 149
152 75 2
154 151 153
156 84 155
158 80 4
160 157 159
162 69 161
164 21 75
166 165 34
168 124 139
170 169 141
172 16 19
174 173 21
176 170 175
178 177 102
180 166 178
182 20 74
184 183 144
186 148 74
188 185 187
190 180 188
192 20 149
194 192 145
196 13 14
198 197 17
200 107 121
202 201 123
204 199 203
206 198 202
208 205 207
210 171 174
212 208 211
214 212 81
216 195 214
218 190 216
220 163 218
222 68 160
224 220 223
i0 2 y1[5]
i1 2 y1[6]
i2 2 y1[0]
i3 2 y1[1]
i4 2 y1[2]
i5 2 y1[3]
i6 2 y1[4]
i7 1 x2[5]
i8 1 x2[7]
i9 1 x2[0]
i10 1 x2[1]
i11 1 x2[2]
i12 1 x2[3]
i13 1 x2[4]
i14 1 x2[6]
o0 bool[0]
c
simplified
  !=
    add
      23
      2 y1
    add
      2 y1
      abs
        1 x2
