words_hard_train/7741.qaiger.qdimacs
p cnf 112 292
a 14 15 17 18 20 22 25 29 0
e 1 2 3 4 5 6 7 8 9 10 11 12 13 16 19 21 23 24 26 27 28 30 31 32 33 34 35 36 37 38 39 40 41 42 43 44 45 46 47 48 49 50 51 52 53 54 55 56 57 58 59 60 61 62 63 64 65 66 67 68 69 70 71 72 73 74 75 76 77 78 79 80 81 82 83 84 85 86 87 88 89 90 91 92 93 94 95 96 97 98 99 100 101 102 103 104 105 106 107 108 109 110 111 112 0
-1 -2 3 0
1 -3 0
2 -3 0
4 5 6 0
-4 -6 0
-5 -6 0
-6 7 8 0
6 -8 0
-7 -8 0
8 -9 10 0
-8 -10 0
9 -10 0
10 11 12 0
-10 -12 0
-11 -12 0
-3 12 13 0
3 -13 0
-12 -13 0
-14 -15 16 0
14 -16 0
15 -16 0
17 18 19 0
-17 -19 0
-18 -19 0
-19 20 21 0
19 -21 0
-20 -21 0
-21 22 23 0
21 -23 0
-22 -23 0
23 -15 24 0
-23 -24 0
15 -24 0
24 25 26 0
-24 -26 0
-25 -26 0
26 -15 27 0
-26 -27 0
15 -27 0
16 27 28 0
-16 -28 0
-27 -28 0
-28 29 30 0
28 -30 0
-29 -30 0
-30 -15 31 0
30 -31 0
15 -31 0
-13 -31 32 0
13 -32 0
31 -32 0
13 31 33 0
-13 -33 0
-31 -33 0
32 33 34 0
-32 -34 0
-33 -34 0
27 -14 35 0
-27 -35 0
14 -35 0
-27 14 36 0
27 -36 0
-14 -36 0
35 36 37 0
-35 -37 0
-36 -37 0
-37 1 38 0
37 -38 0
-1 -38 0
28 -29 39 0
-28 -39 0
29 -39 0
30 39 40 0
-30 -40 0
-39 -40 0
40 2 41 0
-40 -41 0
-2 -41 0
38 41 42 0
-38 -42 0
-41 -42 0
-24 -25 43 0
24 -43 0
25 -43 0
43 26 44 0
-43 -44 0
-26 -44 0
-17 -4 45 0
17 -45 0
4 -45 0
45 5 46 0
-45 -46 0
-5 -46 0
-45 -5 47 0
45 -47 0
5 -47 0
-17 -15 48 0
17 -48 0
15 -48 0
-48 -18 49 0
48 -49 0
18 -49 0
48 18 50 0
-48 -50 0
-18 -50 0
49 50 51 0
-49 -51 0
-50 -51 0
47 51 52 0
-47 -52 0
-51 -52 0
46 52 53 0
-46 -53 0
-52 -53 0
19 -15 54 0
-19 -54 0
15 -54 0
54 -20 55 0
-54 -55 0
20 -55 0
-54 20 56 0
54 -56 0
-20 -56 0
55 56 57 0
-55 -57 0
-56 -57 0
-57 7 58 0
57 -58 0
-7 -58 0
57 -7 59 0
-57 -59 0
7 -59 0
58 59 60 0
-58 -60 0
-59 -60 0
-53 -60 61 0
53 -61 0
60 -61 0
61 59 62 0
-61 -62 0
-59 -62 0
21 -15 63 0
-21 -63 0
15 -63 0
63 22 64 0
-63 -64 0
-22 -64 0
-63 -22 65 0
63 -65 0
22 -65 0
64 65 66 0
-64 -66 0
-65 -66 0
66 9 67 0
-66 -67 0
-9 -67 0
-66 -9 68 0
66 -68 0
9 -68 0
67 68 69 0
-67 -69 0
-68 -69 0
62 -69 70 0
-62 -70 0
69 -70 0
70 68 71 0
-70 -71 0
-68 -71 0
-44 71 72 0
44 -72 0
-71 -72 0
72 11 73 0
-72 -73 0
-11 -73 0
44 -71 74 0
-44 -74 0
71 -74 0
73 74 75 0
-73 -75 0
-74 -75 0
37 -1 76 0
-37 -76 0
1 -76 0
75 76 77 0
-75 -77 0
-76 -77 0
-42 77 78 0
42 -78 0
-77 -78 0
-40 -2 79 0
40 -79 0
2 -79 0
78 79 80 0
-78 -80 0
-79 -80 0
34 80 81 0
-34 -81 0
-80 -81 0
10 37 82 0
-10 -82 0
-37 -82 0
82 -17 83 0
-82 -83 0
17 -83 0
-62 69 84 0
62 -84 0
-69 -84 0
84 70 85 0
-84 -85 0
-70 -85 0
-8 9 86 0
8 -86 0
-9 -86 0
86 10 87 0
-86 -87 0
-10 -87 0
-85 87 88 0
85 -88 0
-87 -88 0
88 -51 89 0
-88 -89 0
51 -89 0
-83 -89 90 0
83 -90 0
89 -90 0
-10 -37 91 0
10 -91 0
37 -91 0
91 -72 92 0
-91 -92 0
72 -92 0
-74 -37 93 0
74 -93 0
37 -93 0
92 93 94 0
-92 -94 0
-93 -94 0
-90 -94 95 0
90 -95 0
94 -95 0
-10 74 96 0
10 -96 0
-74 -96 0
-96 72 97 0
96 -97 0
-72 -97 0
6 -7 98 0
-6 -98 0
7 -98 0
98 8 99 0
-98 -99 0
-8 -99 0
53 60 100 0
-53 -100 0
-60 -100 0
100 61 101 0
-100 -101 0
-61 -101 0
99 101 102 0
-99 -102 0
-101 -102 0
-99 -101 103 0
99 -103 0
101 -103 0
102 103 104 0
-102 -104 0
-103 -104 0
85 -87 105 0
-85 -105 0
87 -105 0
-104 105 106 0
104 -106 0
-105 -106 0
-106 40 107 0
106 -107 0
-40 -107 0
97 -107 108 0
-97 -108 0
107 -108 0
-95 -108 109 0
95 -109 0
108 -109 0
81 -109 110 0
-81 -110 0
109 -110 0
-34 -80 111 0
34 -111 0
80 -111 0
-110 111 112 0
110 -112 0
-111 -112 0
-112 0
